  1   0   0   0   0   0   0   0   0   0   0   0   0   0   0   0   0   0   0   0   0   0   0   0   0   0   0   0   0   0   0   0   0   0   0   0   0   0   0   0   0   0   0   0   0   0   0   0   0   0   0   0   0   0   0   0   0   0   0   0   0   0   0   0   0   0   0   0   0   0   0   0   0   0   0   0   0   0   0   0   0   0   0   0   0   0   0   0   0   0   0   0   0   0   0   0   0   0   0   0   0   0   0   0   0   0   0   0   0   0   0   0   0   0   0   0   0   0   0   0   0   0   0   0   0   0   0   0   0   0   0   0   0   0   0   0   0   0   0   0   0   0   0   0   0   0   0   0   0   0   0   0   0   0   0   0   0   0   0   0   0   0   0   0   0   0   0   0   0   0   0   0   0   0   0   0   0   0   0   0   0   0   0   0   0   0   0   0   0   0   0   0   0   0   0   0   0   0   0   0   0   0   0   0   0   0   0   0   0   0   0   0   0   0   0   0   0   0   0   0   0   0   0   0   0   0   0   0   0   0   0   0   0   0   0   0   0   0   0   0   0   0   0   0   0   0   0   0   0   0   0   0   0   0   0   0   0   0   0   0   0   0   0   0   0   0   0   0   0   0   0   0   0   0   0   0   0   0   0   0   0   0   0   0   0   0   0   0   0   0   0   0   0   0   0   0   0   0   0   0   0   0   0   0   0   0   0   0   0   0   0   0   0   0   0   0   0   0   0   0   0   0   0   0   0   0   0   0   0   0   0   0   0   0   0   0   0   0   0   0   0   0   0   0   0   0   0   0   0   0   0   0   0   0   0   0   0   0   0   0   0   0   0   0   0   0   0   0   0   0   0   0   0   0   0   0   0   0   0   0   0   0   0   0   0   0   0   0   0   0   0   0   0   0   0   0   0   0   0   0   0   0   0   0   0   0   0   0   0   0   0   0   0   0   0   0   0   0   0   0   0   0   0   0   0   0   0   0   0   0   0   0   0   0   0   0   0   0   0   0   0   0   0   0   0   0   0   0   0   0   0   0   0   0   0   0   0   0   0   0   0   0   0   0   0   0   0   0   0   0   0   0   0   0   0   0   0   0   0   0   0   0   0   0   0   0   0   0   0   0   0   0   0   0   0   0   0   0   0   0   0   0   0   0   0   0   0   0   0   0   0   0   0   0   0   0   0   0   0   0   0   0   0   0   0   0   0   0   0   0   0   0   0   0   0   0   0   0   0   0   0   0   0   0   0   0   0   0   0   0   0   0   0   0   0   0   0   0   0   0   0   0   0   0   0   0   0   0   0   0   0   0   0   0   0   0   0   0   0   0   0   0   0   0   0   0   0   0   0   0   0   0   0   0   0   0   0   0   0   0   0   0   0   0   0   0   0   0   0   0   0   0   0   0   0   0   0   0   0   0   0   0   0   0   0   0   0   0   0   0   0   0   0   0   0   0   0   0   0   0   0   0   0   0   0   0   0   0   0   0   0   0   0   0   0   0   0   0   0   0   0   0   0   0   0   0   0   0   0   0   0   0   0   0   0   0   0   0   0   0   0   0   0   0   0   0   0   0   0   0   0   0   0   0   0   0   0   0   0   0   0   0   0   0   0   0   0   0   0   0   0   0   0   0   0   0   0   0   0   0   0   0   0   0   0   0   0   0   0   0   0   0   0   0   0   0   0   0   0   0   0   0   0   0   0   0   0   0   0   0   0   0   0   0   0   0   0   0   0   0   0   0   0   0   0   0   0   0   0   0   0   0   0   0   0   0   0   0   0   0   0   0   0   0   0   0   0   0   0   0   0   0   0   0   0   0   0   0   0   0   0   0   0   0   0   0   0   0   0   0   0   0   0   0   0   0   0   0   0   0   0   0   0   0   0   0   0   0   0   0   0   0   0   0   0   0   0   0   0   0   0   0   0   0   0   0   0   0   0   0   0   0   0   0   0   0   0   0   0   0   0   0   0   0   0   0   0   0   0   0   0   0   0   0   0   0   0   0   0   0   0   0   0   0   0   0   0   0   0   0   0   0   0   0   0   0   0   0   0   0   0   0   0   0   0   0   0   0   0   0   0   0   0   0   0   0   0   0   0   0   0   0   0   0   0   0   0   0   0   0   0   0   0   0   0   0   0   0   0   0   0   0   0   0   0   0   0   0   0   0   0   0   0   0   0   0   0   0   0   0   0   0   0   0   0   0   0   0   0   0   0   0   0   0   0   0   0   0   0   0   0   0   0   0   0   0   0   0   0   0   0   0   0   0   0   0   0   0   0   0 
REMAINING SPACE:      98
ACCUMULATED PRIORITY: 100
EXECUTION TIME:       0.000168100
QTY PRI VAL
[1] 100 402
[0] 100 322
[0] 100 400
[0] 100 274
[0] 100 428
[0] 100 331
[0] 100 270
[0] 100 448
[0] 100 221
[0]  99 321
[0]  99 453
[0]  99 318
[0]  99 395
[0]  99 412
[0]  99 315
[0]  99 299
[0]  99 295
[0]  99 363
[0]  99 353
[0]  98 402
[0]  98 290
[0]  98 308
[0]  98 429
[0]  98 265
[0]  98 478
[0]  98 246
[0]  97 372
[0]  97 391
[0]  97 410
[0]  97 387
[0]  97 314
[0]  97 429
[0]  97 441
[0]  97 437
[0]  97 299
[0]  97 453
[0]  97 459
[0]  97 471
[0]  96 333
[0]  96 248
[0]  96 482
[0]  96 399
[0]  96 228
[0]  96 290
[0]  96 473
[0]  96 213
[0]  96 257
[0]  95 263
[0]  95 470
[0]  95 420
[0]  95 228
[0]  95 400
[0]  95 399
[0]  95 407
[0]  95 420
[0]  94 419
[0]  94 442
[0]  94 476
[0]  94 433
[0]  94 228
[0]  94 348
[0]  94 310
[0]  93 491
[0]  93 300
[0]  93 415
[0]  93 301
[0]  93 212
[0]  93 206
[0]  93 468
[0]  93 431
[0]  93 432
[0]  93 307
[0]  93 406
[0]  93 356
[0]  93 335
[0]  93 394
[0]  93 313
[0]  93 397
[0]  93 348
[0]  92 448
[0]  92 378
[0]  92 223
[0]  92 220
[0]  92 225
[0]  92 306
[0]  92 326
[0]  92 300
[0]  92 494
[0]  92 327
[0]  92 274
[0]  91 464
[0]  91 212
[0]  91 348
[0]  91 226
[0]  91 314
[0]  91 470
[0]  91 491
[0]  91 492
[0]  91 488
[0]  90 244
[0]  90 301
[0]  90 472
[0]  90 476
[0]  90 337
[0]  90 345
[0]  90 431
[0]  90 253
[0]  90 308
[0]  90 378
[0]  89 224
[0]  89 238
[0]  89 474
[0]  89 324
[0]  89 390
[0]  89 332
[0]  89 437
[0]  88 246
[0]  88 372
[0]  88 500
[0]  88 318
[0]  88 338
[0]  88 205
[0]  88 298
[0]  88 456
[0]  88 486
[0]  88 386
[0]  87 439
[0]  87 484
[0]  87 282
[0]  87 415
[0]  87 408
[0]  87 313
[0]  87 235
[0]  87 232
[0]  87 273
[0]  87 343
[0]  86 341
[0]  86 331
[0]  86 259
[0]  86 221
[0]  86 478
[0]  86 499
[0]  86 418
[0]  86 407
[0]  86 233
[0]  86 204
[0]  86 403
[0]  85 203
[0]  85 410
[0]  85 307
[0]  85 308
[0]  85 277
[0]  85 346
[0]  85 405
[0]  85 251
[0]  85 463
[0]  85 249
[0]  84 337
[0]  84 492
[0]  84 281
[0]  84 297
[0]  84 348
[0]  84 314
[0]  84 339
[0]  84 398
[0]  83 293
[0]  83 491
[0]  83 495
[0]  83 430
[0]  83 270
[0]  83 287
[0]  83 269
[0]  83 442
[0]  83 338
[0]  83 397
[0]  83 380
[0]  83 261
[0]  83 246
[0]  82 470
[0]  82 273
[0]  82 477
[0]  82 280
[0]  82 285
[0]  82 492
[0]  82 375
[0]  82 306
[0]  82 418
[0]  82 464
[0]  82 204
[0]  82 361
[0]  81 368
[0]  81 364
[0]  81 332
[0]  81 470
[0]  81 474
[0]  81 367
[0]  81 441
[0]  81 280
[0]  80 403
[0]  80 209
[0]  80 409
[0]  80 383
[0]  80 372
[0]  80 427
[0]  80 357
[0]  80 318
[0]  80 452
[0]  80 390
[0]  80 496
[0]  80 246
[0]  79 456
[0]  79 207
[0]  79 468
[0]  79 202
[0]  79 201
[0]  79 375
[0]  79 415
[0]  79 273
[0]  78 469
[0]  78 374
[0]  78 449
[0]  78 375
[0]  78 214
[0]  78 300
[0]  78 301
[0]  78 243
[0]  78 471
[0]  78 474
[0]  78 345
[0]  78 311
[0]  78 428
[0]  78 498
[0]  78 227
[0]  78 326
[0]  77 309
[0]  77 311
[0]  77 318
[0]  77 359
[0]  77 453
[0]  77 253
[0]  77 201
[0]  77 294
[0]  77 417
[0]  77 323
[0]  77 473
[0]  77 499
[0]  77 347
[0]  77 318
[0]  77 365
[0]  76 314
[0]  76 381
[0]  76 257
[0]  76 298
[0]  76 355
[0]  76 340
[0]  76 403
[0]  76 494
[0]  76 347
[0]  75 451
[0]  75 256
[0]  75 234
[0]  75 250
[0]  75 409
[0]  75 422
[0]  75 261
[0]  75 354
[0]  75 383
[0]  74 331
[0]  74 365
[0]  74 226
[0]  74 235
[0]  74 306
[0]  74 292
[0]  74 306
[0]  74 302
[0]  74 219
[0]  74 308
[0]  73 396
[0]  73 317
[0]  73 349
[0]  73 334
[0]  73 313
[0]  73 297
[0]  73 247
[0]  73 226
[0]  73 229
[0]  73 268
[0]  73 429
[0]  73 495
[0]  73 426
[0]  73 459
[0]  72 293
[0]  72 414
[0]  72 468
[0]  72 234
[0]  72 476
[0]  72 487
[0]  72 305
[0]  72 467
[0]  72 301
[0]  72 472
[0]  71 249
[0]  71 380
[0]  71 429
[0]  71 355
[0]  71 396
[0]  71 459
[0]  71 230
[0]  71 216
[0]  71 200
[0]  71 448
[0]  71 397
[0]  71 380
[0]  71 290
[0]  71 369
[0]  70 441
[0]  70 243
[0]  70 426
[0]  70 334
[0]  70 497
[0]  70 226
[0]  70 315
[0]  70 339
[0]  70 386
[0]  70 464
[0]  70 427
[0]  70 466
[0]  70 378
[0]  70 427
[0]  69 386
[0]  69 236
[0]  69 424
[0]  69 411
[0]  69 430
[0]  69 295
[0]  69 315
[0]  69 465
[0]  68 416
[0]  68 408
[0]  68 490
[0]  68 419
[0]  68 340
[0]  68 491
[0]  68 400
[0]  68 437
[0]  68 362
[0]  67 275
[0]  67 278
[0]  67 334
[0]  67 324
[0]  67 437
[0]  67 477
[0]  67 424
[0]  67 396
[0]  67 337
[0]  67 325
[0]  67 296
[0]  67 200
[0]  67 385
[0]  66 385
[0]  66 206
[0]  66 458
[0]  66 232
[0]  66 341
[0]  66 246
[0]  66 451
[0]  66 376
[0]  65 209
[0]  65 439
[0]  65 218
[0]  65 249
[0]  65 270
[0]  65 476
[0]  65 281
[0]  65 413
[0]  65 300
[0]  65 331
[0]  65 318
[0]  64 462
[0]  64 327
[0]  64 470
[0]  64 276
[0]  64 296
[0]  64 349
[0]  64 453
[0]  64 484
[0]  64 415
[0]  64 461
[0]  64 397
[0]  64 354
[0]  64 389
[0]  63 316
[0]  63 403
[0]  63 300
[0]  63 472
[0]  63 385
[0]  63 382
[0]  63 336
[0]  63 466
[0]  62 228
[0]  62 499
[0]  62 227
[0]  62 219
[0]  62 314
[0]  62 337
[0]  62 289
[0]  62 368
[0]  62 248
[0]  62 410
[0]  62 415
[0]  61 218
[0]  61 443
[0]  61 305
[0]  61 399
[0]  61 246
[0]  61 355
[0]  61 344
[0]  61 210
[0]  61 250
[0]  61 461
[0]  60 401
[0]  60 308
[0]  60 321
[0]  60 341
[0]  60 384
[0]  60 266
[0]  60 433
[0]  60 300
[0]  60 387
[0]  60 225
[0]  60 307
[0]  60 350
[0]  60 388
[0]  59 285
[0]  59 228
[0]  59 314
[0]  59 362
[0]  59 223
[0]  59 394
[0]  59 450
[0]  59 227
[0]  59 369
[0]  59 343
[0]  59 238
[0]  58 398
[0]  58 439
[0]  58 231
[0]  58 355
[0]  58 306
[0]  58 332
[0]  58 466
[0]  57 415
[0]  57 413
[0]  57 376
[0]  57 402
[0]  57 449
[0]  57 424
[0]  57 329
[0]  57 434
[0]  56 309
[0]  56 290
[0]  56 311
[0]  56 426
[0]  56 396
[0]  56 349
[0]  56 472
[0]  56 490
[0]  56 273
[0]  56 276
[0]  56 311
[0]  56 360
[0]  56 330
[0]  55 496
[0]  55 300
[0]  55 407
[0]  55 253
[0]  55 209
[0]  55 226
[0]  55 257
[0]  55 329
[0]  55 283
[0]  55 296
[0]  55 296
[0]  54 453
[0]  54 484
[0]  54 425
[0]  54 357
[0]  54 247
[0]  54 242
[0]  54 313
[0]  54 412
[0]  54 299
[0]  54 488
[0]  54 353
[0]  54 298
[0]  53 347
[0]  53 396
[0]  53 398
[0]  53 365
[0]  53 237
[0]  53 361
[0]  53 253
[0]  53 370
[0]  53 200
[0]  53 367
[0]  53 231
[0]  53 428
[0]  53 356
[0]  53 416
[0]  53 350
[0]  53 416
[0]  52 413
[0]  52 399
[0]  52 428
[0]  52 499
[0]  52 210
[0]  52 452
[0]  52 336
[0]  52 250
[0]  52 428
[0]  51 269
[0]  51 490
[0]  51 412
[0]  51 452
[0]  51 205
[0]  51 330
[0]  51 249
[0]  50 418
[0]  50 411
[0]  50 246
[0]  50 216
[0]  50 308
[0]  50 232
[0]  50 299
[0]  50 287
[0]  50 422
[0]  50 295
[0]  50 357
[0]  49 457
[0]  49 400
[0]  49 269
[0]  49 436
[0]  49 412
[0]  49 341
[0]  49 233
[0]  49 379
[0]  49 245
[0]  49 228
[0]  49 496
[0]  49 311
[0]  49 217
[0]  49 301
[0]  49 353
[0]  49 406
[0]  48 304
[0]  48 244
[0]  48 290
[0]  48 222
[0]  48 405
[0]  48 217
[0]  47 240
[0]  47 241
[0]  47 419
[0]  47 328
[0]  47 362
[0]  47 385
[0]  47 480
[0]  47 491
[0]  47 205
[0]  47 227
[0]  47 308
[0]  47 465
[0]  46 431
[0]  46 286
[0]  46 484
[0]  46 469
[0]  46 427
[0]  46 489
[0]  46 299
[0]  46 351
[0]  46 426
[0]  46 476
[0]  46 344
[0]  46 297
[0]  46 231
[0]  46 235
[0]  46 243
[0]  46 451
[0]  46 241
[0]  45 367
[0]  45 311
[0]  45 293
[0]  45 356
[0]  45 412
[0]  45 460
[0]  45 448
[0]  45 349
[0]  45 420
[0]  45 301
[0]  45 329
[0]  45 362
[0]  44 239
[0]  44 301
[0]  44 354
[0]  44 373
[0]  44 383
[0]  44 233
[0]  44 457
[0]  44 254
[0]  44 217
[0]  44 441
[0]  43 216
[0]  43 457
[0]  43 499
[0]  43 382
[0]  43 259
[0]  43 220
[0]  43 220
[0]  43 366
[0]  43 220
[0]  43 216
[0]  43 299
[0]  43 343
[0]  43 409
[0]  43 489
[0]  43 309
[0]  42 305
[0]  42 338
[0]  42 297
[0]  42 307
[0]  42 423
[0]  42 371
[0]  42 421
[0]  42 300
[0]  42 421
[0]  42 452
[0]  42 410
[0]  41 255
[0]  41 432
[0]  41 222
[0]  41 242
[0]  41 465
[0]  41 419
[0]  41 305
[0]  41 491
[0]  41 421
[0]  41 275
[0]  41 332
[0]  41 476
[0]  41 403
[0]  41 405
[0]  40 269
[0]  40 320
[0]  40 485
[0]  40 494
[0]  40 241
[0]  40 206
[0]  40 274
[0]  40 462
[0]  40 260
[0]  40 434
[0]  40 433
[0]  40 333
[0]  39 356
[0]  39 309
[0]  39 478
[0]  39 385
[0]  39 401
[0]  39 383
[0]  39 268
[0]  39 466
[0]  38 344
[0]  38 410
[0]  38 208
[0]  38 329
[0]  38 434
[0]  38 415
[0]  38 352
[0]  38 406
[0]  38 376
[0]  38 455
[0]  38 323
[0]  38 430
[0]  38 241
[0]  37 360
[0]  37 273
[0]  37 425
[0]  37 338
[0]  37 372
[0]  36 289
[0]  36 326
[0]  36 289
[0]  36 266
[0]  36 462
[0]  36 427
[0]  36 358
[0]  36 365
[0]  36 347
[0]  36 460
[0]  36 215
[0]  36 340
[0]  36 457
[0]  36 397
[0]  36 371
[0]  36 242
[0]  36 248
[0]  36 253
[0]  36 212
[0]  35 436
[0]  35 292
[0]  35 329
[0]  35 207
[0]  35 243
[0]  35 255
[0]  35 222
[0]  34 489
[0]  34 479
[0]  34 226
[0]  34 281
[0]  33 284
[0]  33 288
[0]  33 327
[0]  33 466
[0]  33 250
[0]  33 460
[0]  33 343
[0]  33 272
[0]  33 267
[0]  33 217
[0]  33 333
[0]  33 356
[0]  33 410
[0]  33 339
[0]  33 385
[0]  32 457
[0]  32 255
[0]  32 291
[0]  32 282
[0]  32 347
[0]  32 254
[0]  32 263
[0]  32 274
[0]  32 271
[0]  32 361
[0]  32 339
[0]  32 423
[0]  32 261
[0]  32 391
[0]  32 489
[0]  32 285
[0]  32 336
[0]  32 362
[0]  31 271
[0]  31 264
[0]  31 263
[0]  31 333
[0]  31 314
[0]  31 264
[0]  31 222
[0]  31 461
[0]  31 280
[0]  30 443
[0]  30 447
[0]  30 254
[0]  30 348
[0]  30 333
[0]  30 332
[0]  30 279
[0]  30 377
[0]  30 221
[0]  30 317
[0]  30 448
[0]  30 258
[0]  30 466
[0]  30 276
[0]  30 276
[0]  29 365
[0]  29 490
[0]  29 327
[0]  29 404
[0]  29 256
[0]  29 332
[0]  29 287
[0]  29 408
[0]  29 409
[0]  29 400
[0]  28 374
[0]  28 443
[0]  28 461
[0]  28 331
[0]  28 292
[0]  28 295
[0]  28 359
[0]  28 340
[0]  28 335
[0]  28 372
[0]  27 223
[0]  27 291
[0]  27 277
[0]  27 359
[0]  27 308
[0]  27 344
[0]  27 446
[0]  27 344
[0]  27 326
[0]  27 477
[0]  27 272
[0]  27 265
[0]  26 223
[0]  26 454
[0]  26 320
[0]  26 306
[0]  26 423
[0]  26 213
[0]  26 442
[0]  26 489
[0]  25 357
[0]  25 498
[0]  25 338
[0]  25 497
[0]  25 388
[0]  25 226
[0]  25 380
[0]  25 426
[0]  25 269
[0]  25 288
[0]  25 341
[0]  25 336
[0]  25 347
[0]  25 299
[0]  24 425
[0]  24 301
[0]  24 319
[0]  24 429
[0]  24 285
[0]  24 357
[0]  24 423
[0]  24 499
[0]  24 329
[0]  24 391
[0]  24 407
[0]  24 343
[0]  24 422
[0]  24 289
[0]  23 420
[0]  23 261
[0]  23 260
[0]  23 360
[0]  23 202
[0]  23 210
[0]  23 250
[0]  23 390
[0]  23 453
[0]  23 464
[0]  23 401
[0]  23 436
[0]  23 377
[0]  22 433
[0]  22 243
[0]  22 269
[0]  22 452
[0]  22 202
[0]  22 261
[0]  22 440
[0]  22 362
[0]  22 445
[0]  21 348
[0]  21 338
[0]  21 366
[0]  21 396
[0]  21 221
[0]  21 466
[0]  21 445
[0]  21 373
[0]  21 445
[0]  21 431
[0]  21 316
[0]  21 420
[0]  21 328
[0]  20 227
[0]  20 270
[0]  20 260
[0]  20 256
[0]  20 265
[0]  20 367
[0]  20 374
[0]  20 471
[0]  20 413
[0]  20 357
[0]  20 335
[0]  20 454
[0]  20 494
[0]  20 412
[0]  20 279
[0]  20 407
[0]  20 218
[0]  20 363
[0]  19 468
[0]  19 363
[0]  19 431
[0]  19 357
[0]  19 290
[0]  18 202
[0]  18 477
[0]  18 457
[0]  18 489
[0]  18 425
[0]  18 300
[0]  18 339
[0]  18 433
[0]  18 473
[0]  18 251
[0]  18 257
[0]  17 248
[0]  17 391
[0]  17 284
[0]  17 204
[0]  17 426
[0]  17 321
[0]  17 412
[0]  16 254
[0]  16 372
[0]  16 212
[0]  16 331
[0]  16 202
[0]  16 465
[0]  16 410
[0]  16 289
[0]  16 480
[0]  16 395
[0]  16 446
[0]  16 202
[0]  16 279
[0]  16 308
[0]  15 327
[0]  15 462
[0]  15 270
[0]  15 336
[0]  15 386
[0]  15 354
[0]  15 463
[0]  15 315
[0]  15 492
[0]  15 462
[0]  14 218
[0]  14 204
[0]  14 428
[0]  14 365
[0]  14 384
[0]  14 362
[0]  14 433
[0]  14 428
[0]  14 457
[0]  14 375
[0]  14 340
[0]  13 244
[0]  13 382
[0]  13 447
[0]  13 265
[0]  13 233
[0]  13 280
[0]  13 353
[0]  12 300
[0]  12 323
[0]  12 257
[0]  12 419
[0]  12 364
[0]  12 422
[0]  12 360
[0]  12 390
[0]  12 378
[0]  11 359
[0]  11 428
[0]  11 383
[0]  11 290
[0]  11 429
[0]  11 374
[0]  11 402
[0]  11 369
[0]  11 227
[0]  11 388
[0]  11 372
[0]  11 316
[0]  11 459
[0]  11 245
[0]  10 344
[0]  10 356
[0]  10 215
[0]  10 379
[0]  10 253
[0]  10 232
[0]  10 398
[0]  10 251
[0]  10 207
[0]  10 273
[0]  10 276
[0]  10 470
[0]  10 331
[0]  10 324
[0]  10 209
